c 3 - XORSAT
p cnf 10 40
8 9 1 0
-8 -9 1 0
-8 9 -1 0
8 -9 -1 0
-4 -6 -7 0
-4 6 7 0
4 -6 7 0
4 6 -7 0
1 4 7 0
-1 -4 7 0
-1 4 -7 0
1 -4 -7 0
-5 -6 -8 0
-5 6 8 0
5 -6 8 0
5 6 -8 0
-2 -3 -6 0
-2 3 6 0
2 -3 6 0
2 3 -6 0
-2 -4 -10 0
-2 4 10 0
2 -4 10 0
2 4 -10 0
1 9 10 0
-1 -9 10 0
-1 9 -10 0
1 -9 -10 0
-3 -5 -8 0
-3 5 8 0
3 -5 8 0
3 5 -8 0
2 3 5 0
-2 -3 5 0
-2 3 -5 0
2 -3 -5 0
9 10 7 0
-9 -10 7 0
-9 10 -7 0
9 -10 -7 0
